NAME          ClpDefau
ROWS
 N  OBJROW
 L  R_60_0
 L  R_60_1
 L  R_60_2
 L  R_60_3
 L  R_60_4
 L  R_60_5
 L  R_60_6
 L  R_60_7
COLUMNS
    x_0       OBJROW     -1.           R_60_1    3.          
    x_1       OBJROW     -2.        
    x_2       OBJROW     -2.           R_60_1    3.          
    x_2       R_60_3    6.             R_60_4    9.          
    x_3       OBJROW     -6.           R_60_0    8.          
    x_4       OBJROW     -3.           R_60_1    7.          
    x_5       OBJROW     -5.        
    x_6       OBJROW     -5.           R_60_4    10.         
    x_7       OBJROW     -10.       
RHS
    RHS       R_60_0    10.            R_60_1    9.          
    RHS       R_60_2    10.            R_60_3    10.         
    RHS       R_60_4    8.             R_60_5    9.          
    RHS       R_60_6    10.            R_60_7    8.          
BOUNDS
 UI BOUND     x_0       10.         
 UI BOUND     x_1       10.         
 UI BOUND     x_2       10.         
 UI BOUND     x_3       10.         
 UI BOUND     x_4       10.         
 UI BOUND     x_5       10.         
 UI BOUND     x_6       10.         
 UI BOUND     x_7       10.         
ENDATA
